p cnf 22 47
14 -20 -22 0
-15 19 22 0
-8 -11 14 0
6 -13 -21 0
-4 13 22 0
-12 13 -15 0
3 -4 13 0
-1 -3 8 0
10 -13 -14 0
-4 12 -20 0
-9 -14 20 0
2 -7 12 0
-5 16 17 0
5 -6 -17 0
7 -9 -17 0
-6 -15 21 0
7 18 -19 0
-5 14 -19 0
7 -11 -14 0
-8 13 -16 0
2 11 -17 0
-9 -15 -18 0
-13 -15 -18 0
9 13 16 0
-8 -13 -16 0
1 4 18 0
10 17 19 0
7 -19 20 0
-9 16 18 0
2 6 -10 0
2 -12 14 0
-3 -5 7 0
-10 -19 22 0
-6 -17 -20 0
4 8 14 0
-10 16 20 0
-7 -18 22 0
1 4 -6 0
-7 11 14 0
1 -3 8 0
-10 -21 -22 0
7 -9 -21 0
-11 -15 17 0
-10 12 -21 0
3 16 22 0
1 -9 -11 0
13 18 22 0
